c Random generated cnf formula, satisfiable: true
p cnf 10 50
-5 -10 9 0
1 10 -8 0
2 -9 -3 0
-9 -5 -4 0
-2 10 3 0
8 -9 2 0
1 10 3 0
-3 -10 7 0
10 -9 -7 0
-4 6 -10 0
8 -2 -7 0
2 5 -1 0
-1 5 -4 0
-10 -2 6 0
4 8 -7 0
4 8 -1 0
8 5 10 0
7 -10 6 0
-1 10 -8 0
-8 9 7 0
-4 -2 -7 0
6 -9 5 0
9 -1 7 0
-6 -7 1 0
5 6 4 0
1 -6 -5 0
1 3 -5 0
1 9 5 0
2 -5 -9 0
3 -10 7 0
7 -6 -10 0
-9 -8 5 0
5 -7 -8 0
1 -2 3 0
5 -2 -4 0
-8 5 4 0
-9 -6 1 0
-3 7 -9 0
-2 7 3 0
-10 5 7 0
9 -2 -3 0
-9 -8 5 0
-7 3 -9 0
5 -7 -9 0
2 4 -9 0
5 -10 -4 0
7 2 -8 0
9 -8 10 0
-9 8 2 0
-9 3 -1 0
